<?xml version = "1.0" standalone="yes"?>
<!-- This file has been generated by DOcplex version 2.23.222  -->
<CPLEXSolution version="1.0">
 <header
   problemName="CVRP"
   objectiveValue="13926.5"
  />
 <variables>
  <variable name="x_0_2" index="1" value="1.00000"/>
  <variable name="x_0_3" index="2" value="1.00000"/>
  <variable name="x_0_5" index="4" value="1.00000"/>
  <variable name="x_0_7" index="6" value="1.00000"/>
  <variable name="x_0_9" index="8" value="1.00000"/>
  <variable name="x_0_10" index="9" value="1.00000"/>
  <variable name="x_0_11" index="10" value="1.00000"/>
  <variable name="x_0_12" index="11" value="1.00000"/>
  <variable name="x_0_13" index="12" value="1.00000"/>
  <variable name="x_0_14" index="13" value="1.00000"/>
  <variable name="x_0_17" index="16" value="1.00000"/>
  <variable name="x_0_18" index="17" value="1.00000"/>
  <variable name="x_0_19" index="18" value="1.00000"/>
  <variable name="x_0_21" index="20" value="1.00000"/>
  <variable name="x_1_0" index="21" value="1.00000"/>
  <variable name="x_2_0" index="42" value="1.00000"/>
  <variable name="x_3_0" index="63" value="1.00000"/>
  <variable name="x_4_0" index="84" value="1.00000"/>
  <variable name="x_5_0" index="105" value="1.00000"/>
  <variable name="x_6_0" index="126" value="1.00000"/>
  <variable name="x_7_8" index="154" value="1.00000"/>
  <variable name="x_8_1" index="169" value="1.00000"/>
  <variable name="x_9_0" index="189" value="1.00000"/>
  <variable name="x_10_16" index="225" value="1.00000"/>
  <variable name="x_11_0" index="231" value="1.00000"/>
  <variable name="x_12_20" index="271" value="1.00000"/>
  <variable name="x_13_0" index="273" value="1.00000"/>
  <variable name="x_14_6" index="300" value="1.00000"/>
  <variable name="x_15_0" index="315" value="1.00000"/>
  <variable name="x_16_0" index="336" value="1.00000"/>
  <variable name="x_17_0" index="357" value="1.00000"/>
  <variable name="x_18_15" index="393" value="1.00000"/>
  <variable name="x_19_0" index="399" value="1.00000"/>
  <variable name="x_20_4" index="424" value="1.00000"/>
  <variable name="x_21_0" index="441" value="1.00000"/>
  <variable name="u_1" index="462" value="21.00000"/>
  <variable name="u_2" index="463" value="16.00000"/>
  <variable name="u_3" index="464" value="15.00000"/>
  <variable name="u_4" index="465" value="22.00000"/>
  <variable name="u_5" index="466" value="22.00000"/>
  <variable name="u_6" index="467" value="16.00000"/>
  <variable name="u_7" index="468" value="4.00000"/>
  <variable name="u_8" index="469" value="6.00000"/>
  <variable name="u_9" index="470" value="20.00000"/>
  <variable name="u_10" index="471" value="15.00000"/>
  <variable name="u_11" index="472" value="22.00000"/>
  <variable name="u_12" index="473" value="14.00000"/>
  <variable name="u_13" index="474" value="22.00000"/>
  <variable name="u_14" index="475" value="2.00000"/>
  <variable name="u_15" index="476" value="22.00000"/>
  <variable name="u_16" index="477" value="22.00000"/>
  <variable name="u_17" index="478" value="13.00000"/>
  <variable name="u_18" index="479" value="20.00000"/>
  <variable name="u_19" index="480" value="22.00000"/>
  <variable name="u_20" index="481" value="21.00000"/>
  <variable name="u_21" index="482" value="22.00000"/>
 </variables>
</CPLEXSolution>
